c   #vars: 80   #clauses: 351   #literals: 950
c 
p cnf 80 351
-1 -2 0
-3 -4 0
-5 -6 0
-7 -8 0
-9 -10 0
-11 -12 0
-13 -14 0
-15 -16 0
-17 -18 0
-19 -20 0
-21 -22 0
-23 -24 0
-25 -26 0
35 59 60 -78 0
13 14 71 72 0
-29 -30 0
-31 -32 0
-33 -34 0
50 57 58 -79 0
-36 -37 0
-38 -39 0
-40 -41 0
-42 -43 0
-44 -45 0
-46 -47 0
-48 -49 0
29 30 -46 70 0
-51 -52 0
-53 -54 0
-55 -56 0
-57 -58 0
-59 -60 0
-61 -62 0
3 4 42 43 0
-63 -64 0
-65 -66 0
-68 -69 0
51 52 59 60 0
-71 -72 0
44 45 73 74 0
-73 -74 0
-75 -76 0
15 16 59 60 0
-77 -78 0
1 2 75 76 0
-79 -80 0
9 10 38 39 0
21 22 36 37 0
7 8 73 74 0
-1 -29 0
-2 -30 0
38 39 77 78 0
-1 -53 0
-2 -54 0
28 35 -38 -78 0
-1 -59 0
-2 -60 0
-1 -75 0
-2 -76 0
31 32 65 66 0
-1 -77 0
-2 -78 0
-3 -31 0
-4 -32 0
-3 -33 0
-4 -34 0
25 26 42 43 0
-3 -40 0
-4 -41 0
-3 -42 0
-4 -43 0
5 6 55 56 0
-3 -68 0
-4 -69 0
5 6 79 80 0
-3 -77 0
-4 -78 0
-5 -36 0
-6 -37 0
-5 -48 0
-6 -49 0
53 54 61 62 0
-5 -55 0
-6 -56 0
9 10 61 62 0
-5 -57 0
-6 -58 0
21 22 59 60 0
-5 -79 0
-6 -80 0
9 10 42 43 0
3 4 77 78 0
11 12 75 76 0
-7 -40 0
-8 -41 0
28 38 39 -67 0
-7 -51 0
-8 -52 0
19 20 77 78 0
-7 -55 0
-8 -56 0
28 35 -38 -60 0
-7 -68 0
-8 -69 0
19 20 75 76 0
-7 -73 0
-8 -74 0
-9 -31 0
-10 -32 0
21 22 40 41 0
-9 -38 0
-10 -39 0
44 45 79 80 0
-9 -42 0
-10 -43 0
7 8 51 52 0
-9 -44 0
-10 -45 0
44 45 63 64 0
-9 -61 0
-10 -62 0
15 16 51 52 0
-9 -65 0
-10 -66 0
9 10 44 45 0
27 -48 61 62 0
28 35 -67 -78 0
27 29 30 -61 0
-54 55 56 67 0
27 29 30 -48 0
19 20 63 64 0
-11 -36 0
-12 -37 0
9 10 65 66 0
-11 -46 0
-12 -47 0
3 4 68 69 0
-11 -63 0
-12 -64 0
-11 -65 0
-12 -66 0
-19 46 47 70 0
-11 -75 0
-12 -76 0
-13 -31 0
-14 -32 0
42 43 59 60 0
-13 -33 0
-14 -34 0
9 10 31 32 0
-13 -71 0
-14 -72 0
3 4 31 32 0
-13 -77 0
-14 -78 0
17 18 40 41 0
-15 -38 0
-16 -39 0
3 4 33 34 0
-15 -48 0
-16 -49 0
1 2 53 54 0
-15 -51 0
-16 -52 0
33 34 63 64 0
-15 -57 0
-16 -58 0
21 22 33 34 0
-15 -59 0
-16 -60 0
23 24 33 34 0
-15 -65 0
-16 -66 0
53 54 65 66 0
-17 -40 0
-18 -41 0
13 14 77 78 0
-17 -55 0
-18 -56 0
-29 46 47 70 0
-17 -57 0
-18 -58 0
25 26 57 58 0
-17 -59 0
-18 -60 0
-17 -61 0
-18 -62 0
-19 -63 0
-20 -64 0
28 -35 38 39 0
-20 -70 0
23 24 63 64 0
-19 -75 0
-20 -76 0
11 12 36 37 0
-19 -77 0
-20 -78 0
1 2 29 30 0
-21 -33 0
-22 -34 0
29 30 71 72 0
-21 -36 0
-22 -37 0
-21 -40 0
-22 -41 0
28 35 -60 -67 0
-21 -46 0
-22 -47 0
27 48 49 -61 0
-21 -59 0
-22 -60 0
17 18 57 58 0
-23 -33 0
-24 -34 0
48 49 68 69 0
-23 -48 0
-24 -49 0
17 18 61 62 0
-23 -61 0
-24 -62 0
7 8 68 69 0
-23 -63 0
-24 -64 0
-25 -42 0
-26 -43 0
-25 -55 0
-26 -56 0
13 14 33 34 0
-25 -57 0
-26 -58 0
1 2 77 78 0
-25 -71 0
-26 -72 0
53 54 59 60 0
-28 35 59 60 0
-27 -30 0
46 47 65 66 0
35 -60 77 78 0
-27 -49 0
40 41 68 69 0
-28 35 77 78 0
-27 -62 0
50 -57 68 69 0
50 57 58 -68 0
13 14 31 32 0
28 -35 -56 67 0
-28 -39 0
15 16 38 39 0
53 54 -56 67 0
15 16 57 58 0
33 34 57 58 0
-28 53 54 67 0
11 12 46 47 0
28 -38 -56 67 0
-30 -70 0
36 37 79 80 0
-29 -71 0
-30 -72 0
38 39 71 72 0
27 -29 61 62 0
28 -35 -54 67 0
23 24 61 62 0
-31 -65 0
-32 -66 0
21 22 46 47 0
-33 -57 0
-34 -58 0
3 4 40 41 0
-33 -63 0
-34 -64 0
51 52 77 78 0
-35 -59 0
50 -68 79 80 0
36 37 68 69 0
-35 -77 0
50 -57 79 80 0
-36 -68 0
-37 -69 0
15 16 65 66 0
-36 -79 0
-37 -80 0
46 47 57 58 0
23 24 48 49 0
-38 -71 0
-39 -72 0
7 8 40 41 0
-38 -77 0
-39 -78 0
27 -29 48 49 0
-40 -68 0
-41 -69 0
44 45 75 76 0
-42 -59 0
-43 -60 0
-28 55 56 67 0
1 2 59 60 0
-44 -63 0
-45 -64 0
11 12 65 66 0
-44 -73 0
-45 -74 0
5 6 57 58 0
-44 -75 0
-45 -76 0
-44 -79 0
-45 -80 0
15 16 48 49 0
-46 -57 0
-47 -58 0
5 6 48 49 0
-46 -65 0
-47 -66 0
25 26 55 56 0
28 -38 -54 67 0
-47 -70 0
-46 -73 0
-47 -74 0
5 6 36 37 0
-48 -68 0
-49 -69 0
51 52 65 66 0
-48 -73 0
-49 -74 0
48 49 73 74 0
-19 29 30 70 0
-50 -58 0
17 18 59 60 0
19 20 -46 70 0
-50 -69 0
46 47 73 74 0
19 20 -29 70 0
-50 -80 0
-51 -59 0
-52 -60 0
-51 -65 0
-52 -66 0
50 68 69 -79 0
-51 -77 0
-52 -78 0
17 18 55 56 0
-53 -59 0
-54 -60 0
7 8 55 56 0
-53 -61 0
-54 -62 0
-53 -65 0
-54 -66 0
-53 -67 0
11 12 63 64 0
25 26 71 72 0
-55 -67 0
